p cnf 14 64
-2 5 13 0
-7 -10 -11 0
-7 -8 11 0
3 -6 11 0
4 -5 -13 0
4 5 -8 0
5 7 -12 0
1 -9 12 0
-4 10 13 0
-2 -6 -12 0
-3 -4 -8 0
-3 -5 -10 0
7 12 14 0
2 9 -10 0
6 7 -14 0
-2 3 4 0
3 6 7 0
-5 -11 -13 0
-1 -3 5 0
-6 -10 -13 0
-4 -5 -14 0
-4 12 13 0
3 4 -11 0
7 -9 -14 0
-2 5 -9 0
-1 5 10 0
5 -11 -13 0
1 3 10 0
-1 -2 5 0
7 9 -14 0
7 -9 -11 0
-3 4 9 0
4 7 8 0
-7 -8 10 0
-1 9 11 0
-5 9 10 0
-2 -11 12 0
6 9 11 0
-2 -9 -14 0
-4 -7 11 0
-6 -10 -14 0
-4 -8 13 0
-2 -12 14 0
8 -12 -14 0
1 -10 -13 0
-2 -12 -14 0
2 -8 -9 0
6 -13 -14 0
-1 -5 -7 0
10 -11 -13 0
-5 -6 -8 0
11 13 14 0
7 9 10 0
2 6 -9 0
3 -4 -8 0
3 -4 6 0
-1 3 5 0
-1 -6 7 0
2 6 7 0
-3 -13 -14 0
-1 -3 6 0
1 10 13 0
-4 7 -8 0
-8 9 -14 0
